\ Model MilkPowder_16
\ LP format - for model browsing. Use MPS format to capture full model detail.
Minimize
  - 0.0001 W + 0.5 b + 0.275 h + 0.5 i + C19 + 100 C20 + GlobalOracle[16]
Subject To
 Pasture_Cover: P - P0 + h + fp - 7 gr <= 0
 Supplement_Storage: Q - Q0 - 0.9 h + fs <= 0
 Supplement_Storage: Q - Q0 - 0.9 h + fs <= 0
 CowsAmount: C - C0 <= 0
 Soil_Limit: W <= 150
 milkRel: - 0.0121885793493058 mlk + milk <= 0
 milk_BALANCE: M - M0 - milk <= 0
 EnergyBalance: 2.170585624810649 C0 + 11 b + 11 fs + 11 fp - mlk
   >= 1164.726036179682
 maximum_milk: - 1072.401971104229 C0 + mlk <= 0
 minimum_milk: - 6.3 C0 + milk >= 0
 pasture_growth_constraints1: - 1.677251620678139 ev + gr <= 0
 growth_aprox0.000000: - 0.0742857142857143 P0 + gr
   <= 7.4285714285714287e-04
 growth_aprox1750.000000: gr <= 65
 growth_aprox3500.000000: 0.0742857142857143 P0 + gr <= 259.9992571428571
 max_irrigation: i <= 0
 evapotranspiration_ctr: ev - evapotranspiration <= 0
 soil-mosture-balance: W - W0 - i + ev - rainfall <= 0
 max_rate_d1_1: C19 >= 0
 max_rate_d1_2: - 0.25 b + C19 >= -15.75
 max_rate_d1_3: - 0.75 b + C19 >= -57.75
 max_rate_d1_4: - b + C19 >= -89.25
 unicut[0]: - 0.05 oracle[16][1] - 0.05 oracle[16][2] - 0.05 oracle[16][3]
   - 0.05 oracle[16][4] - 0.05 oracle[16][5] - 0.05 oracle[16][6]
   - 0.05 oracle[16][7] - 0.05 oracle[16][8] - 0.05 oracle[16][9]
   - 0.05 oracle[16][10] - 0.05 oracle[16][11]
   - 0.0725714285714286 oracle[16][13] - 0.05 oracle[16][14]
   - 0.1274285714285714 oracle[16][15] - 0.05 oracle[16][16]
   - 0.05 oracle[16][17] - 0.05 oracle[16][18] - 0.05 oracle[16][19]
   + GlobalOracle[16] >= 0
 cut[16,0,0]: 2.3148645101509643e+08 P + 53.03421313004917 C
   + oracle[16][0] >= -2.0006889146155356e+06
 cut[16,0,1]: 2.3148645101509643e+08 P + 53.03421313004917 C
   + oracle[16][1] >= -2.0006889146155319e+06
 cut[16,0,2]: 2.3148645101509643e+08 P + 53.03421313004917 C
   + oracle[16][2] >= -2.0006889146155319e+06
 cut[16,0,3]: 2.3148645101509643e+08 P + 53.03421313004917 C
   + oracle[16][3] >= -2.0006889146155319e+06
 cut[16,0,4]: 2.3148645101509643e+08 P + 53.03421313004917 C
   + oracle[16][4] >= -2.0006889146155319e+06
 cut[16,0,5]: 2.3148645101509643e+08 P + 53.03421313004917 C
   + oracle[16][5] >= -2.0006889146155319e+06
 cut[16,0,6]: 2.3148645101509643e+08 P + 53.03421313004917 C
   + oracle[16][6] >= -2.0006889146155319e+06
 cut[16,0,7]: 2.3148645101509643e+08 P + 53.03421313004917 C
   + oracle[16][7] >= -2.0006889146155319e+06
 cut[16,0,8]: 2.3148645101509643e+08 P + 53.03421313004917 C
   + oracle[16][8] >= -2.0006889146155319e+06
 cut[16,0,9]: 2.3148645101509643e+08 P + 53.03421313004917 C
   + oracle[16][9] >= -2.0006889146155319e+06
 cut[16,0,10]: 2.3148645101509643e+08 P + 53.03421313004917 C
   + oracle[16][10] >= -2.0006889146155319e+06
 cut[16,0,11]: 2.3148645101509643e+08 P + 53.03421313004917 C
   + oracle[16][11] >= -2.0006889146155319e+06
 cut[16,0,12]: 2.3148645101509643e+08 P + 53.03421313004917 C
   + oracle[16][12] >= -2.0006889146155319e+06
 cut[16,0,13]: 2.3148645101509643e+08 P + 53.03421313004917 C
   + oracle[16][13] >= -2.0006889146155319e+06
 cut[16,0,14]: 2.3148645101509643e+08 P + 53.03421313004917 C
   + oracle[16][14] >= -2.0006889146155319e+06
 cut[16,0,15]: 2.3148645101509142e+08 P + 0.0001 W + 53.03421313004917 C
   + oracle[16][15] >= -2.000688899615482e+06
 cut[16,0,16]: 2.3148645101509643e+08 P + 53.03421313004917 C
   + oracle[16][16] >= -2.0006889146155319e+06
 cut[16,0,17]: 2.3148645101509643e+08 P + 53.03421313004917 C
   + oracle[16][17] >= -2.0006889146155319e+06
 cut[16,0,18]: 2.3148645101509643e+08 P + 53.03421313004917 C
   + oracle[16][18] >= -2.0006889146155319e+06
 cut[16,0,19]: 2.3148645101509643e+08 P + 53.03421313004917 C
   + oracle[16][19] >= -2.0006889146155319e+06
Bounds
 M = -10000
 P0 = 0
 Q0 = 0
 W0 = 149.9995900729446
 C0 = 0
 M0 = -10000
 evapotranspiration = 22.2
 rainfall = 23.93333333333333
 oracle[16][0] >= -1e+10
 oracle[16][1] >= -1e+10
 oracle[16][2] >= -1e+10
 oracle[16][3] >= -1e+10
 oracle[16][4] >= -1e+10
 oracle[16][5] >= -1e+10
 oracle[16][6] >= -1e+10
 oracle[16][7] >= -1e+10
 oracle[16][8] >= -1e+10
 oracle[16][9] >= -1e+10
 oracle[16][10] >= -1e+10
 oracle[16][11] >= -1e+10
 oracle[16][12] >= -1e+10
 oracle[16][13] >= -1e+10
 oracle[16][14] >= -1e+10
 oracle[16][15] >= -1e+10
 oracle[16][16] >= -1e+10
 oracle[16][17] >= -1e+10
 oracle[16][18] >= -1e+10
 oracle[16][19] >= -1e+10
 GlobalOracle[16] >= -1e+08
End
